ObjectiveValue = 1790.6;
flow=[(1,6,5)(5,0,0)(5,1,0)(5,2,0)(5,6,0)(5,8,0)(5,10,0)(5,11,0)(5,12,0)(5,13,0)(6,1,3)(6,5,3)(6,10,4)(6,11,13)(9,6,1)(10,4,2)(10,6,3)(10,9,2)(11,5,3)(11,6,4)(11,8,4)(11,10,2)(11,12,3)(12,1,3)(12,5,5)(12,6,6)(12,11,8)(12,13,3)];
